param n := 120;
param c := 3000
param : V : p w :=
   0	  37	 377
   1	  65	 284
   2	  96	 339
   3	  23	 366
   4	  63	 260
   5	  27	 374
   6	  14	 469
   7	  80	 253
   8	   6	 278
   9	  26	 397
  10	  98	 292
  11	  31	 311
  12	  73	 429
  13	  25	 260
  14	  24	 311
  15	  15	 448
  16	  39	 253
  17	  58	 299
  18	  37	 428
  19	  61	 269
  20	  44	 303
  21	  86	 491
  22	  81	 251
  23	  42	 258
  24	  90	 357
  25	  65	 265
  26	  56	 378
  27	  55	 350
  28	  63	 320
  29	  94	 330
  30	  59	 453
  31	  16	 250
  32	  23	 297
  33	 100	 380
  34	  24	 260
  35	  51	 360
  36	  86	 471
  37	  97	 258
  38	  79	 271
  39	  10	 391
  40	  93	 290
  41	  31	 319
  42	  55	 465
  43	  53	 254
  44	  58	 281
  45	  24	 420
  46	  14	 254
  47	  52	 326
  48	  47	 404
  49	  81	 297
  50	  85	 299
  51	   4	 364
  52	  51	 300
  53	  79	 336
  54	  83	 370
  55	  82	 303
  56	  86	 327
  57	  28	 358
  58	  29	 269
  59	  46	 373
  60	   9	 371
  61	  54	 254
  62	  27	 375
  63	  36	 451
  64	  78	 257
  65	   5	 292
  66	   2	 380
  67	  94	 295
  68	  80	 325
  69	  37	 357
  70	   4	 273
  71	  59	 370
  72	  54	 359
  73	  26	 318
  74	  21	 323
  75	  24	 457
  76	  60	 262
  77	  95	 281
  78	  53	 441
  79	  84	 255
  80	  40	 304
  81	  14	 468
  82	  16	 257
  83	  69	 275
  84	  91	 491
  85	  41	 252
  86	  81	 257
  87	  90	 359
  88	  73	 266
  89	  95	 375
  90	   4	 459
  91	  63	 252
  92	  92	 289
  93	  29	 427
  94	  58	 252
  95	  38	 321
  96	  84	 461
  97	  17	 263
  98	  45	 276
  99	  57	 425
 100	  44	 286
 101	  90	 289
 102	  44	 360
 103	   5	 277
 104	   7	 363
 105	  13	 402
 106	  38	 297
 107	  18	 301
 108	  99	 455
 109	  77	 260
 110	  10	 285
 111	  47	 493
 112	  78	 250
 113	  50	 257
 114	   5	 378
 115	   6	 299
 116	  82	 323
 117	  49	 390
 118	  74	 285
 119	  15	 325
;

set E :=
   0	   2
   0	  10
   0	  11
   0	  21
   0	  23
   0	  25
   0	  26
   0	  28
   0	  31
   0	  32
   0	  34
   0	  39
   0	  45
   0	  52
   0	  53
   0	  54
   0	  55
   0	  60
   0	  61
   0	  63
   0	  64
   0	  67
   0	  73
   0	  79
   0	  80
   0	  81
   0	  82
   0	  84
   0	  86
   0	  91
   0	  93
   0	  98
   0	 109
   0	 110
   1	   2
   1	  15
   1	  18
   1	  19
   1	  25
   1	  26
   1	  29
   1	  30
   1	  34
   1	  41
   1	  43
   1	  45
   1	  47
   1	  50
   1	  57
   1	  63
   1	  67
   1	  69
   1	  72
   1	  74
   1	  75
   1	  76
   1	  81
   1	  82
   1	  86
   1	  88
   1	  90
   1	  96
   1	 101
   1	 102
   1	 105
   1	 107
   1	 110
   1	 111
   1	 112
   1	 113
   1	 115
   1	 117
   2	   5
   2	   6
   2	   9
   2	  10
   2	  14
   2	  16
   2	  18
   2	  19
   2	  20
   2	  22
   2	  24
   2	  29
   2	  31
   2	  32
   2	  35
   2	  37
   2	  42
   2	  50
   2	  52
   2	  53
   2	  57
   2	  59
   2	  66
   2	  68
   2	  75
   2	  76
   2	  79
   2	  82
   2	  89
   2	  94
   2	  99
   2	 101
   2	 103
   2	 111
   2	 112
   2	 117
   3	  12
   3	  13
   3	  14
   3	  17
   3	  19
   3	  24
   3	  26
   3	  28
   3	  31
   3	  33
   3	  37
   3	  39
   3	  50
   3	  54
   3	  55
   3	  56
   3	  57
   3	  58
   3	  63
   3	  67
   3	  68
   3	  73
   3	  84
   3	  88
   3	  94
   3	 100
   3	 108
   3	 109
   3	 110
   3	 113
   4	   7
   4	   8
   4	  23
   4	  26
   4	  31
   4	  33
   4	  36
   4	  37
   4	  38
   4	  41
   4	  42
   4	  45
   4	  51
   4	  55
   4	  58
   4	  59
   4	  65
   4	  68
   4	  71
   4	  72
   4	  74
   4	  77
   4	  81
   4	  83
   4	  85
   4	  88
   4	  90
   4	  91
   4	  95
   4	  97
   4	 108
   4	 111
   4	 115
   4	 118
   5	  11
   5	  14
   5	  15
   5	  17
   5	  18
   5	  20
   5	  21
   5	  24
   5	  25
   5	  30
   5	  35
   5	  36
   5	  40
   5	  41
   5	  42
   5	  48
   5	  49
   5	  50
   5	  51
   5	  61
   5	  62
   5	  63
   5	  65
   5	  66
   5	  68
   5	  72
   5	  73
   5	  74
   5	  76
   5	  77
   5	  85
   5	  86
   5	  99
   5	 103
   5	 104
   5	 109
   5	 110
   5	 116
   6	   7
   6	   9
   6	  14
   6	  17
   6	  23
   6	  28
   6	  29
   6	  36
   6	  37
   6	  38
   6	  41
   6	  42
   6	  45
   6	  46
   6	  49
   6	  56
   6	  60
   6	  63
   6	  64
   6	  66
   6	  70
   6	  73
   6	  74
   6	  75
   6	  79
   6	  81
   6	  82
   6	  83
   6	  85
   6	  91
   6	  96
   6	  97
   6	 101
   6	 102
   6	 103
   6	 104
   6	 110
   6	 111
   6	 117
   6	 118
   6	 119
   7	  12
   7	  15
   7	  18
   7	  23
   7	  25
   7	  31
   7	  40
   7	  47
   7	  48
   7	  51
   7	  53
   7	  56
   7	  61
   7	  65
   7	  66
   7	  68
   7	  69
   7	  71
   7	  75
   7	  76
   7	  89
   7	  90
   7	  96
   7	  98
   7	  99
   7	 102
   7	 105
   7	 108
   7	 111
   7	 118
   8	   9
   8	  10
   8	  13
   8	  15
   8	  17
   8	  18
   8	  20
   8	  22
   8	  23
   8	  25
   8	  28
   8	  33
   8	  34
   8	  35
   8	  40
   8	  46
   8	  52
   8	  56
   8	  62
   8	  63
   8	  71
   8	  73
   8	  74
   8	  75
   8	  76
   8	  77
   8	  78
   8	  79
   8	  81
   8	  82
   8	  84
   8	  87
   8	  89
   8	  93
   8	  95
   8	  97
   8	 105
   8	 107
   8	 110
   8	 111
   8	 112
   8	 118
   9	  10
   9	  14
   9	  15
   9	  17
   9	  18
   9	  20
   9	  21
   9	  24
   9	  30
   9	  31
   9	  34
   9	  39
   9	  41
   9	  44
   9	  50
   9	  54
   9	  60
   9	  62
   9	  65
   9	  66
   9	  76
   9	  83
   9	  88
   9	  91
   9	  92
   9	  95
   9	  97
   9	 104
   9	 105
   9	 108
   9	 111
   9	 117
   9	 119
  10	  13
  10	  14
  10	  21
  10	  22
  10	  23
  10	  25
  10	  26
  10	  27
  10	  29
  10	  39
  10	  42
  10	  47
  10	  50
  10	  54
  10	  60
  10	  65
  10	  66
  10	  70
  10	  72
  10	  73
  10	  75
  10	  76
  10	  81
  10	  83
  10	  85
  10	  87
  10	  88
  10	  89
  10	  90
  10	  92
  10	  94
  10	  97
  10	  98
  10	  99
  10	 100
  10	 101
  10	 105
  10	 106
  10	 109
  10	 111
  10	 114
  10	 115
  10	 117
  11	  13
  11	  16
  11	  22
  11	  24
  11	  29
  11	  30
  11	  32
  11	  36
  11	  37
  11	  39
  11	  42
  11	  49
  11	  52
  11	  56
  11	  57
  11	  58
  11	  61
  11	  65
  11	  67
  11	  69
  11	  73
  11	  74
  11	  79
  11	  81
  11	  84
  11	  93
  11	  94
  11	  97
  11	 100
  11	 101
  11	 109
  11	 111
  11	 112
  11	 113
  11	 117
  11	 119
  12	  16
  12	  20
  12	  21
  12	  23
  12	  27
  12	  30
  12	  32
  12	  33
  12	  37
  12	  42
  12	  44
  12	  54
  12	  66
  12	  67
  12	  69
  12	  70
  12	  71
  12	  75
  12	  84
  12	  85
  12	  88
  12	  89
  12	  90
  12	  91
  12	  97
  12	  98
  12	  99
  12	 102
  12	 118
  12	 119
  13	  15
  13	  19
  13	  22
  13	  24
  13	  25
  13	  32
  13	  34
  13	  35
  13	  39
  13	  40
  13	  42
  13	  50
  13	  53
  13	  56
  13	  60
  13	  61
  13	  63
  13	  66
  13	  67
  13	  72
  13	  74
  13	  77
  13	  80
  13	  84
  13	  86
  13	  88
  13	  92
  13	  96
  13	  98
  13	 100
  13	 104
  13	 106
  13	 110
  13	 116
  13	 117
  13	 119
  14	  19
  14	  20
  14	  23
  14	  24
  14	  27
  14	  30
  14	  31
  14	  33
  14	  34
  14	  35
  14	  36
  14	  38
  14	  39
  14	  49
  14	  65
  14	  66
  14	  68
  14	  70
  14	  75
  14	  79
  14	  83
  14	  87
  14	  89
  14	  91
  14	  93
  14	  95
  14	  96
  14	  98
  14	  99
  14	 114
  14	 115
  14	 119
  15	  18
  15	  21
  15	  23
  15	  26
  15	  32
  15	  34
  15	  35
  15	  37
  15	  39
  15	  42
  15	  43
  15	  44
  15	  51
  15	  52
  15	  57
  15	  59
  15	  60
  15	  61
  15	  64
  15	  65
  15	  68
  15	  71
  15	  73
  15	  74
  15	  75
  15	  80
  15	  84
  15	  85
  15	  88
  15	  91
  15	  92
  15	  96
  15	  97
  15	  99
  15	 102
  15	 117
  16	  20
  16	  33
  16	  34
  16	  40
  16	  41
  16	  45
  16	  51
  16	  52
  16	  56
  16	  67
  16	  72
  16	  74
  16	  76
  16	  80
  16	  82
  16	  85
  16	  86
  16	  97
  16	  99
  16	 102
  16	 104
  16	 105
  16	 106
  16	 110
  16	 119
  17	  18
  17	  20
  17	  27
  17	  35
  17	  42
  17	  50
  17	  53
  17	  54
  17	  57
  17	  60
  17	  62
  17	  71
  17	  75
  17	  79
  17	  80
  17	  81
  17	  83
  17	  84
  17	  88
  17	  92
  17	  99
  17	 103
  17	 108
  17	 110
  17	 112
  17	 114
  17	 116
  18	  23
  18	  30
  18	  33
  18	  35
  18	  36
  18	  39
  18	  40
  18	  41
  18	  50
  18	  53
  18	  54
  18	  56
  18	  57
  18	  58
  18	  59
  18	  63
  18	  64
  18	  65
  18	  70
  18	  72
  18	  74
  18	  79
  18	  80
  18	  90
  18	  94
  18	  95
  18	  96
  18	 101
  18	 103
  18	 107
  18	 110
  18	 111
  18	 114
  18	 117
  18	 119
  19	  21
  19	  24
  19	  28
  19	  29
  19	  39
  19	  41
  19	  45
  19	  50
  19	  53
  19	  57
  19	  61
  19	  62
  19	  66
  19	  68
  19	  71
  19	  72
  19	  74
  19	  75
  19	  81
  19	  86
  19	  87
  19	  88
  19	  92
  19	  95
  19	  96
  19	  97
  19	 101
  19	 103
  19	 105
  19	 107
  19	 109
  19	 110
  19	 112
  19	 113
  19	 118
  20	  23
  20	  26
  20	  38
  20	  41
  20	  42
  20	  43
  20	  45
  20	  48
  20	  49
  20	  50
  20	  51
  20	  52
  20	  62
  20	  64
  20	  65
  20	  75
  20	  76
  20	  84
  20	  86
  20	  89
  20	  92
  20	 105
  20	 110
  20	 119
  21	  22
  21	  23
  21	  28
  21	  31
  21	  32
  21	  36
  21	  39
  21	  42
  21	  43
  21	  44
  21	  51
  21	  56
  21	  60
  21	  72
  21	  83
  21	  85
  21	  87
  21	  92
  21	  93
  21	  94
  21	  96
  21	 109
  21	 110
  21	 113
  21	 118
  21	 119
  22	  24
  22	  29
  22	  39
  22	  40
  22	  42
  22	  43
  22	  50
  22	  56
  22	  57
  22	  59
  22	  62
  22	  63
  22	  64
  22	  66
  22	  83
  22	  84
  22	  91
  22	  98
  22	 101
  22	 103
  22	 104
  22	 107
  22	 108
  22	 109
  22	 117
  23	  24
  23	  25
  23	  34
  23	  38
  23	  40
  23	  41
  23	  44
  23	  46
  23	  47
  23	  51
  23	  52
  23	  53
  23	  55
  23	  56
  23	  66
  23	  77
  23	  80
  23	  81
  23	  83
  23	  86
  23	  87
  23	  88
  23	  90
  23	  92
  23	  94
  23	  96
  23	  97
  23	 103
  23	 105
  23	 107
  23	 114
  23	 115
  24	  25
  24	  26
  24	  27
  24	  28
  24	  29
  24	  33
  24	  36
  24	  37
  24	  41
  24	  45
  24	  49
  24	  53
  24	  55
  24	  58
  24	  61
  24	  66
  24	  78
  24	  80
  24	  81
  24	  83
  24	  84
  24	  87
  24	  88
  24	  89
  24	  95
  24	 104
  24	 107
  24	 108
  24	 119
  25	  26
  25	  29
  25	  31
  25	  32
  25	  33
  25	  35
  25	  47
  25	  49
  25	  50
  25	  53
  25	  54
  25	  55
  25	  58
  25	  60
  25	  61
  25	  64
  25	  68
  25	  75
  25	  76
  25	  78
  25	  79
  25	  80
  25	  89
  25	  99
  25	 100
  25	 102
  25	 104
  25	 106
  25	 108
  25	 113
  25	 116
  25	 117
  26	  28
  26	  35
  26	  36
  26	  43
  26	  44
  26	  48
  26	  55
  26	  58
  26	  62
  26	  64
  26	  65
  26	  67
  26	  70
  26	  73
  26	  76
  26	  78
  26	  80
  26	  83
  26	  90
  26	  97
  26	 101
  26	 108
  26	 111
  26	 112
  26	 114
  26	 116
  26	 117
  27	  28
  27	  32
  27	  37
  27	  42
  27	  46
  27	  47
  27	  50
  27	  52
  27	  54
  27	  81
  27	  82
  27	  83
  27	  88
  27	  90
  27	  92
  27	  95
  27	  97
  27	  99
  27	 103
  27	 111
  27	 113
  27	 117
  28	  36
  28	  38
  28	  41
  28	  43
  28	  44
  28	  45
  28	  51
  28	  52
  28	  56
  28	  59
  28	  67
  28	  69
  28	  71
  28	  78
  28	  79
  28	  83
  28	  84
  28	  88
  28	  89
  28	  94
  28	  96
  28	  97
  28	  99
  28	 100
  28	 101
  28	 106
  28	 107
  28	 109
  28	 114
  28	 118
  29	  33
  29	  34
  29	  36
  29	  39
  29	  47
  29	  49
  29	  50
  29	  51
  29	  56
  29	  60
  29	  61
  29	  63
  29	  65
  29	  66
  29	  67
  29	  73
  29	  75
  29	  76
  29	  79
  29	  80
  29	  85
  29	  86
  29	  89
  29	  90
  29	  91
  29	  94
  29	  97
  29	  99
  29	 103
  29	 104
  30	  31
  30	  32
  30	  41
  30	  42
  30	  43
  30	  44
  30	  45
  30	  50
  30	  51
  30	  58
  30	  64
  30	  65
  30	  67
  30	  68
  30	  69
  30	  72
  30	  75
  30	  76
  30	  78
  30	  83
  30	  84
  30	  86
  30	  90
  30	  91
  30	  97
  30	 100
  30	 106
  30	 108
  30	 111
  31	  35
  31	  36
  31	  37
  31	  38
  31	  42
  31	  47
  31	  48
  31	  49
  31	  52
  31	  53
  31	  57
  31	  59
  31	  60
  31	  61
  31	  63
  31	  71
  31	  77
  31	  79
  31	  84
  31	  86
  31	  88
  31	  91
  31	  93
  31	  99
  31	 101
  31	 104
  31	 107
  31	 108
  31	 111
  31	 114
  31	 119
  32	  33
  32	  38
  32	  49
  32	  52
  32	  53
  32	  54
  32	  56
  32	  57
  32	  58
  32	  62
  32	  63
  32	  68
  32	  69
  32	  70
  32	  71
  32	  74
  32	  75
  32	  76
  32	  78
  32	  79
  32	  83
  32	  84
  32	  90
  32	  91
  32	  92
  32	  97
  32	  98
  32	 100
  32	 103
  32	 105
  32	 106
  32	 107
  32	 110
  32	 119
  33	  34
  33	  36
  33	  37
  33	  43
  33	  48
  33	  51
  33	  55
  33	  59
  33	  63
  33	  71
  33	  72
  33	  76
  33	  79
  33	  81
  33	  84
  33	  86
  33	  87
  33	  89
  33	  91
  33	  93
  33	  96
  33	  99
  33	 102
  33	 107
  33	 110
  33	 114
  34	  35
  34	  39
  34	  41
  34	  42
  34	  47
  34	  49
  34	  50
  34	  51
  34	  55
  34	  58
  34	  63
  34	  64
  34	  72
  34	  73
  34	  74
  34	  79
  34	  80
  34	  92
  34	  96
  34	  97
  34	  98
  34	 100
  34	 101
  34	 105
  34	 108
  34	 109
  34	 112
  34	 114
  34	 115
  35	  38
  35	  41
  35	  44
  35	  47
  35	  51
  35	  55
  35	  56
  35	  57
  35	  61
  35	  62
  35	  63
  35	  65
  35	  71
  35	  76
  35	  77
  35	  78
  35	  80
  35	  86
  35	  95
  35	 105
  35	 106
  35	 108
  35	 113
  35	 114
  35	 115
  35	 118
  36	  53
  36	  54
  36	  65
  36	  67
  36	  69
  36	  73
  36	  77
  36	  79
  36	  82
  36	  84
  36	  91
  36	  94
  36	  95
  36	  96
  36	  97
  36	  99
  36	 100
  36	 101
  36	 105
  36	 111
  36	 112
  36	 114
  36	 118
  37	  43
  37	  44
  37	  45
  37	  49
  37	  55
  37	  56
  37	  61
  37	  62
  37	  64
  37	  68
  37	  69
  37	  74
  37	  78
  37	  80
  37	  82
  37	  83
  37	  86
  37	  87
  37	  88
  37	  90
  37	  93
  37	  97
  37	  99
  37	 100
  37	 102
  37	 103
  37	 106
  37	 107
  37	 112
  37	 113
  37	 115
  37	 116
  37	 119
  38	  39
  38	  47
  38	  48
  38	  51
  38	  52
  38	  53
  38	  55
  38	  64
  38	  70
  38	  72
  38	  81
  38	  82
  38	  86
  38	  90
  38	  91
  38	  99
  38	 108
  38	 109
  38	 115
  39	  40
  39	  42
  39	  45
  39	  50
  39	  53
  39	  54
  39	  59
  39	  60
  39	  61
  39	  62
  39	  67
  39	  68
  39	  75
  39	  82
  39	  84
  39	  86
  39	  95
  39	  96
  39	  99
  39	 104
  39	 113
  40	  42
  40	  46
  40	  50
  40	  53
  40	  57
  40	  62
  40	  63
  40	  77
  40	  78
  40	  83
  40	  85
  40	  89
  40	  90
  40	  91
  40	  94
  40	  97
  40	 103
  40	 105
  40	 106
  40	 109
  40	 110
  40	 117
  40	 118
  41	  43
  41	  44
  41	  45
  41	  51
  41	  60
  41	  61
  41	  62
  41	  65
  41	  67
  41	  70
  41	  71
  41	  73
  41	  74
  41	  78
  41	  79
  41	  80
  41	  82
  41	  86
  41	  88
  41	  96
  41	 108
  41	 111
  41	 115
  41	 119
  42	  44
  42	  47
  42	  55
  42	  60
  42	  61
  42	  68
  42	  71
  42	  74
  42	  79
  42	  84
  42	  85
  42	  93
  42	 102
  42	 105
  42	 106
  42	 108
  42	 112
  42	 119
  43	  49
  43	  52
  43	  53
  43	  58
  43	  59
  43	  61
  43	  62
  43	  63
  43	  67
  43	  83
  43	  88
  43	  90
  43	  93
  43	  94
  43	  96
  43	  99
  43	 103
  43	 108
  43	 109
  43	 111
  43	 113
  43	 119
  44	  46
  44	  52
  44	  60
  44	  67
  44	  68
  44	  71
  44	  73
  44	  74
  44	  75
  44	  76
  44	  77
  44	  78
  44	  82
  44	  83
  44	  85
  44	  89
  44	  92
  44	  94
  44	  98
  44	 101
  44	 118
  44	 119
  45	  46
  45	  47
  45	  52
  45	  54
  45	  55
  45	  59
  45	  60
  45	  65
  45	  66
  45	  68
  45	  71
  45	  72
  45	  75
  45	  81
  45	  94
  45	  97
  45	  99
  45	 102
  45	 107
  45	 108
  45	 112
  45	 115
  45	 119
  46	  51
  46	  54
  46	  57
  46	  58
  46	  66
  46	  68
  46	  71
  46	  81
  46	  83
  46	  86
  46	  88
  46	  89
  46	  94
  46	  98
  46	 100
  46	 101
  46	 102
  46	 103
  46	 108
  46	 114
  47	  52
  47	  54
  47	  57
  47	  60
  47	  62
  47	  63
  47	  67
  47	  74
  47	  76
  47	  86
  47	  87
  47	  89
  47	  91
  47	  93
  47	  96
  47	 101
  47	 103
  47	 104
  47	 111
  47	 112
  47	 116
  47	 119
  48	  57
  48	  59
  48	  60
  48	  62
  48	  76
  48	  80
  48	  83
  48	  84
  48	  85
  48	  89
  48	  90
  48	  91
  48	  96
  48	 104
  48	 105
  48	 106
  48	 108
  48	 113
  48	 116
  48	 117
  48	 119
  49	  54
  49	  55
  49	  59
  49	  61
  49	  65
  49	  68
  49	  71
  49	  74
  49	  84
  49	  85
  49	  88
  49	  90
  49	  95
  49	  96
  49	 104
  49	 108
  49	 114
  49	 116
  49	 117
  50	  53
  50	  55
  50	  57
  50	  58
  50	  72
  50	  78
  50	  82
  50	  93
  50	  97
  50	 101
  50	 107
  50	 117
  50	 119
  51	  52
  51	  53
  51	  56
  51	  58
  51	  61
  51	  68
  51	  69
  51	  73
  51	  75
  51	  90
  51	  94
  51	  96
  51	  97
  51	 103
  51	 107
  51	 111
  51	 112
  51	 113
  51	 118
  52	  54
  52	  55
  52	  62
  52	  65
  52	  67
  52	  69
  52	  70
  52	  74
  52	  78
  52	  80
  52	  83
  52	  87
  52	  94
  52	 101
  52	 103
  52	 104
  52	 106
  52	 111
  52	 112
  52	 113
  52	 114
  52	 117
  52	 119
  53	  54
  53	  57
  53	  59
  53	  60
  53	  63
  53	  67
  53	  70
  53	  79
  53	  80
  53	  84
  53	  87
  53	  91
  53	  92
  53	  95
  53	  96
  53	  99
  53	 105
  53	 106
  53	 108
  53	 118
  54	  55
  54	  57
  54	  58
  54	  59
  54	  61
  54	  62
  54	  64
  54	  69
  54	  71
  54	  76
  54	  81
  54	  82
  54	  83
  54	  91
  54	  96
  54	  97
  54	  98
  54	 101
  54	 107
  54	 111
  54	 115
  54	 116
  54	 117
  55	  63
  55	  65
  55	  67
  55	  68
  55	  71
  55	  72
  55	  73
  55	  76
  55	  80
  55	  86
  55	  88
  55	  93
  55	 107
  55	 114
  55	 115
  55	 117
  55	 119
  56	  57
  56	  59
  56	  60
  56	  61
  56	  66
  56	  68
  56	  70
  56	  76
  56	  86
  56	  89
  56	  92
  56	  93
  56	  96
  56	  97
  56	 104
  56	 106
  56	 107
  56	 108
  56	 109
  56	 110
  56	 112
  56	 113
  56	 114
  57	  66
  57	  69
  57	  74
  57	  75
  57	  81
  57	  82
  57	  86
  57	  90
  57	  91
  57	  95
  57	  98
  57	 112
  57	 113
  57	 114
  57	 117
  58	  59
  58	  64
  58	  65
  58	  67
  58	  79
  58	  80
  58	  82
  58	  91
  58	 102
  58	 103
  58	 105
  58	 106
  58	 107
  58	 114
  58	 117
  58	 119
  59	  60
  59	  62
  59	  65
  59	  68
  59	  71
  59	  74
  59	  87
  59	  88
  59	  91
  59	  99
  59	 104
  59	 105
  59	 111
  59	 112
  59	 113
  59	 114
  59	 119
  60	  61
  60	  63
  60	  65
  60	  67
  60	  68
  60	  70
  60	  76
  60	  90
  60	  91
  60	  96
  60	 101
  60	 103
  60	 107
  60	 108
  60	 111
  60	 116
  61	  68
  61	  71
  61	  72
  61	  73
  61	  74
  61	  92
  61	  95
  61	  97
  61	 100
  61	 101
  61	 104
  61	 105
  61	 106
  61	 116
  61	 117
  61	 119
  62	  65
  62	  70
  62	  73
  62	  74
  62	  75
  62	  77
  62	  82
  62	  83
  62	  84
  62	  87
  62	  91
  62	  92
  62	  93
  62	 104
  62	 106
  62	 109
  62	 112
  63	  67
  63	  68
  63	  77
  63	  78
  63	  82
  63	  90
  63	  91
  63	  92
  63	  96
  63	  97
  63	 110
  63	 112
  63	 115
  63	 116
  64	  65
  64	  77
  64	  80
  64	  84
  64	  86
  64	  90
  64	  91
  64	  93
  64	 103
  64	 106
  64	 107
  64	 108
  64	 116
  64	 118
  64	 119
  65	  67
  65	  75
  65	  76
  65	  77
  65	  78
  65	  80
  65	  82
  65	  83
  65	  89
  65	  90
  65	  91
  65	  96
  65	  99
  65	 100
  65	 103
  65	 109
  65	 110
  65	 112
  65	 117
  66	  67
  66	  68
  66	  75
  66	  76
  66	  78
  66	  80
  66	  86
  66	  89
  66	  91
  66	  92
  66	  93
  66	  95
  66	  99
  66	 100
  66	 101
  66	 107
  66	 111
  66	 112
  66	 113
  66	 114
  66	 117
  67	  69
  67	  70
  67	  71
  67	  73
  67	  74
  67	  76
  67	  84
  67	  85
  67	  94
  67	  96
  67	 102
  67	 103
  67	 105
  67	 106
  67	 108
  67	 111
  67	 117
  68	  74
  68	  82
  68	  85
  68	  87
  68	  90
  68	  91
  68	  94
  68	  98
  68	 103
  68	 104
  68	 105
  68	 107
  68	 117
  69	  70
  69	  73
  69	  81
  69	  82
  69	  83
  69	  86
  69	  87
  69	  88
  69	  90
  69	  91
  69	  93
  69	  95
  69	  96
  69	  97
  69	  99
  69	 101
  69	 102
  69	 109
  69	 110
  69	 114
  70	  71
  70	  79
  70	  81
  70	  82
  70	  89
  70	  92
  70	  96
  70	  99
  70	 101
  70	 103
  70	 106
  70	 108
  70	 112
  70	 118
  71	  83
  71	  86
  71	  92
  71	  95
  71	 102
  71	 115
  71	 118
  72	  75
  72	  76
  72	  79
  72	  85
  72	  86
  72	  89
  72	  91
  72	  97
  72	  99
  72	 100
  72	 106
  72	 111
  72	 112
  72	 115
  73	  76
  73	  80
  73	  83
  73	  89
  73	  91
  73	  92
  73	  93
  73	  94
  73	  95
  73	  96
  73	  97
  73	  98
  73	 100
  73	 106
  73	 113
  73	 114
  73	 115
  73	 116
  74	  75
  74	  81
  74	  89
  74	  90
  74	  94
  74	 101
  74	 112
  75	  76
  75	  77
  75	  79
  75	  83
  75	  84
  75	  86
  75	  97
  75	 100
  75	 101
  75	 104
  75	 106
  75	 107
  75	 109
  75	 110
  75	 119
  76	  80
  76	  81
  76	  83
  76	  85
  76	  93
  76	  98
  76	  99
  76	 109
  76	 110
  76	 111
  76	 113
  76	 117
  77	  78
  77	  79
  77	  82
  77	  83
  77	  93
  77	  95
  77	  98
  77	 103
  77	 105
  77	 106
  77	 107
  77	 110
  77	 114
  77	 115
  77	 117
  78	  89
  78	  99
  78	 101
  78	 104
  78	 109
  78	 110
  78	 117
  79	  82
  79	  87
  79	  89
  79	  90
  79	  95
  79	 100
  79	 108
  79	 118
  80	  81
  80	  90
  80	  93
  80	  94
  80	  96
  80	  98
  80	 105
  80	 108
  80	 115
  80	 118
  81	  83
  81	  90
  81	  99
  81	 100
  81	 110
  81	 116
  81	 117
  81	 119
  82	  87
  82	  93
  82	  98
  82	 101
  82	 102
  82	 103
  82	 107
  82	 108
  82	 114
  82	 115
  83	  92
  83	  96
  83	 100
  83	 103
  83	 109
  83	 112
  84	  85
  84	  86
  84	  87
  84	  89
  84	  91
  84	 100
  84	 107
  84	 108
  84	 109
  84	 115
  85	  86
  85	  87
  85	  89
  85	  90
  85	  98
  85	  99
  85	 100
  85	 105
  85	 111
  85	 113
  85	 117
  85	 119
  86	  88
  86	  92
  86	  97
  86	 107
  86	 111
  86	 116
  86	 119
  87	  92
  87	  99
  87	 108
  87	 110
  87	 111
  87	 113
  87	 116
  87	 118
  88	  92
  88	  95
  88	 104
  88	 105
  88	 106
  88	 108
  88	 113
  88	 114
  89	  94
  89	  99
  89	 100
  89	 101
  89	 102
  89	 103
  89	 110
  89	 114
  89	 116
  89	 118
  90	  93
  90	  96
  90	  98
  90	 103
  90	 104
  90	 107
  90	 112
  90	 114
  90	 115
  90	 116
  90	 117
  90	 118
  90	 119
  91	  98
  91	 100
  91	 101
  91	 102
  91	 103
  91	 105
  91	 107
  91	 108
  91	 110
  91	 112
  91	 113
  91	 116
  92	  93
  92	  99
  92	 102
  92	 103
  92	 110
  92	 112
  92	 114
  92	 117
  92	 119
  93	  96
  93	  99
  93	 106
  93	 111
  93	 112
  93	 115
  93	 116
  93	 117
  93	 118
  94	  96
  94	  97
  94	  98
  94	  99
  94	 102
  94	 105
  94	 107
  94	 110
  94	 112
  94	 113
  94	 114
  94	 115
  94	 117
  94	 118
  95	  98
  95	 100
  95	 104
  95	 105
  95	 111
  95	 116
  96	  99
  96	 102
  96	 103
  96	 115
  97	  99
  97	 100
  97	 101
  97	 104
  97	 107
  97	 112
  97	 118
  97	 119
  98	 103
  98	 104
  98	 106
  98	 108
  98	 109
  99	 102
  99	 106
  99	 112
  99	 114
  99	 117
 100	 106
 100	 107
 100	 110
 100	 111
 100	 115
 100	 116
 100	 118
 101	 102
 101	 106
 101	 112
 101	 117
 102	 108
 102	 112
 102	 115
 102	 116
 102	 119
 103	 104
 103	 105
 103	 106
 103	 108
 103	 109
 103	 112
 104	 105
 104	 109
 104	 111
 104	 113
 104	 119
 105	 107
 105	 110
 105	 111
 105	 112
 105	 116
 106	 108
 106	 115
 106	 117
 107	 108
 107	 111
 107	 112
 107	 116
 107	 118
 107	 119
 108	 110
 108	 117
 108	 118
 108	 119
 109	 115
 109	 116
 110	 111
 110	 117
 111	 114
 112	 114
 112	 115
 112	 116
 112	 118
 113	 115
 113	 119
 114	 115
 114	 116
 115	 117
 116	 118
 116	 119
 117	 118
;
